Traveling Salesman Problem/TSP_generados/Aleatorio1621103442_14.tsp
NAME: Aleatorio1621103442_14.tsp
COMMENT: Randomly generated scenario
TYPE: TSP
DIMENSION: 14
EDGE_WEIGHT_TYPE: ATT
NODE_COORD_SECTION
1 28.06 44.36
2 16.3 29.7
3 46.46 44.56
4 3.23 25.86
5 35.21 15.21
6 30.53 6.59
7 29.57 13.83
8 1.72 23.97
9 0.66 34.66
10 44.04 36.07
11 17.75 35.95
12 14.9 29.08
13 28.19 4.02
14 44.01 29.67
