Traveling Salesman Problem/TSP_generados/Aleatorio1621103442_14.opt.tour
NAME: Aleatorio1621103442_14.opt.tour
COMMENT: Optimal solution for Aleatorio1621103442_14 (148.42126781318262)
TYPE: TOUR
DIMENSION: 14
TOUR_SECTION
1 3 10 14 5 7 6 13 8 4 9 12 2 11
-1
EOF
